unknown
(model
; cardinality of BoundSet is 1
(declare-sort BoundSet 0)
; rep: @uc_BoundSet_0
(declare-sort UnboundSet 0)
(define-fun IsRubbing ((BOUND_VARIABLE_338 BoundSet)) Bool true)
(define-fun IsInYellowTie ((BOUND_VARIABLE_338 BoundSet)) Bool false)
)
sat
(model
; cardinality of BoundSet is 1
(declare-sort BoundSet 0)
; rep: @uc_BoundSet_0
(declare-sort UnboundSet 0)
(define-fun IsRubbing ((BOUND_VARIABLE_363 BoundSet)) Bool true)
(define-fun IsInYellowTie ((BOUND_VARIABLE_363 BoundSet)) Bool false)
)
